; benchmark generated from python API
(set-info :status unknown)
(declare-datatypes ((IntState 0)) (((Mk1 (val1 Int)) (Mk2 (val2 Int)))))
 (declare-fun c_main_~z~0 () Int)
(declare-fun c_main_~x~0 () Int)
(declare-fun c_main_~y~0 () Int)
(assert
 (let (($x184 (exists ((|v_main_#t~nondet2_5_st| IntState) (val!32 Int) )(exists ((|v_main_#t~nondet2_6_st| IntState) (val!33 Int) )(let (($x112 (not (= |v_main_#t~nondet2_6_st| (Mk1 val!33)))))
 (let (($x98 (not (= |v_main_#t~nondet2_5_st| (Mk1 val!32)))))
 (and $x98 $x112 (= (+ (* 4194304 (val2 |v_main_#t~nondet2_5_st|)) (* 4194304 (val2 |v_main_#t~nondet2_6_st|))) c_main_~z~0)))))
 )
 ))
 (let (($x45 (exists ((|v_main_#t~nondet0_5_st| IntState) (val!30 Int) )(exists ((|v_main_#t~nondet0_6_st| IntState) (val!31 Int) )(let (($x112 (not (= |v_main_#t~nondet0_6_st| (Mk1 val!31)))))
 (let (($x98 (not (= |v_main_#t~nondet0_5_st| (Mk1 val!30)))))
 (and $x98 $x112 (= c_main_~x~0 (+ (* 1048576 (val2 |v_main_#t~nondet0_5_st|)) (* 1048576 (val2 |v_main_#t~nondet0_6_st|))))))))
 )
 ))
 (let (($x52 (exists ((|v_main_#t~nondet1_6_st| IntState) (val!28 Int) )(exists ((|v_main_#t~nondet1_5_st| IntState) (val!29 Int) )(let (($x112 (not (= |v_main_#t~nondet1_5_st| (Mk1 val!29)))))
 (let (($x98 (not (= |v_main_#t~nondet1_6_st| (Mk1 val!28)))))
 (and $x98 $x112 (= c_main_~y~0 (+ (* 2097152 (val2 |v_main_#t~nondet1_6_st|)) (* 2097152 (val2 |v_main_#t~nondet1_5_st|))))))))
 )
 ))
 (let (($x70 (exists ((|v_main_#t~nondet2_7| Int) )(exists ((|v_main_#t~nondet2_5| Int) )(exists ((|v_main_#t~nondet2_6| Int) )(= c_main_~z~0 (+ (* 4194304 |v_main_#t~nondet2_7|) (* 4194304 |v_main_#t~nondet2_5|) (* 4194304 |v_main_#t~nondet2_6|))))
 )
 )
 ))
 (let (($x23 (exists ((|v_main_#t~nondet0_7| Int) )(exists ((|v_main_#t~nondet0_5| Int) )(exists ((|v_main_#t~nondet0_6| Int) )(= (+ (* 1048576 |v_main_#t~nondet0_7|) (* 1048576 |v_main_#t~nondet0_5|) (* 1048576 |v_main_#t~nondet0_6|)) c_main_~x~0))
 )
 )
 ))
 (let (($x5 (exists ((|v_main_#t~nondet1_6| Int) )(exists ((|v_main_#t~nondet1_7| Int) )(exists ((|v_main_#t~nondet1_5| Int) )(= (+ (* 2097152 |v_main_#t~nondet1_6|) (* 2097152 |v_main_#t~nondet1_7|) (* 2097152 |v_main_#t~nondet1_5|)) c_main_~y~0))
 )
 )
 ))
 (and (and $x5 $x23 $x70) (not (and $x52 $x45 $x184))))))))))
(check-sat)
